[runlim] version:		1.10
[runlim] time limit:		311040000 seconds
[runlim] real time limit:	1800 seconds
[runlim] space limit:		30000 MB
[runlim] argv[0]:		python
[runlim] argv[1]:		FE.py
[runlim] argv[2]:		C-bcspwr01.mtx.rnd
[runlim] start:			Wed Oct  9 01:19:27 2024
[runlim] main pid:		14786
[runlim] log captured:
17
16
Version identifier: 20.1.0.0 | 2020-11-10 | 9bedb6d68
CPXPARAM_Simplex_PGradient                       4
CPXPARAM_Read_DataCheck                          1
CPXPARAM_MIP_Strategy_File                       3
CPXPARAM_TimeLimit                               1800
CPXPARAM_WorkMem                                 122880
Tried aggregator 1 time.
MIP Presolve eliminated 45 rows and 33 columns.
MIP Presolve modified 62 coefficients.
Reduced MIP has 1157 rows, 1488 columns, and 36514 nonzeros.
Reduced MIP has 1488 binaries, 0 generals, 0 SOSs, and 0 indicators.
Presolve time = 0.02 sec. (33.36 ticks)
Probing fixed 52 vars, tightened 0 bounds.
Probing time = 0.01 sec. (3.57 ticks)
Tried aggregator 1 time.
Detecting symmetries...
MIP Presolve eliminated 0 rows and 52 columns.
Reduced MIP has 1157 rows, 1436 columns, and 35240 nonzeros.
Reduced MIP has 1436 binaries, 0 generals, 0 SOSs, and 0 indicators.
Presolve time = 0.02 sec. (29.47 ticks)
Probing time = 0.01 sec. (2.43 ticks)
Clique table members: 1897.
MIP emphasis: balance optimality and feasibility.
MIP search method: dynamic search.
Parallel mode: deterministic, using up to 8 threads.

Root node processing (before b&c):
  Real time             =    0.16 sec. (176.15 ticks)
Parallel b&c, 8 threads:
  Real time             =    0.00 sec. (0.00 ticks)
  Sync time (average)   =    0.00 sec.
  Wait time (average)   =    0.00 sec.
                          ------------
Total (root+branch&cut) =    0.16 sec. (176.15 ticks)
Trạng thái giải pháp: integer optimal solution
Giá trị Antibandwidth: 16
Giá trị Antibandwidth: 16
Các nhãn: [5, 28, 27, 36, 13, 24, 25, 35, 12, 23, 10, 4, 7, 22, 18, 37, 30, 39, 21, 16, 20, 19, 15, 11, 32, 9, 17, 1, 8, 29, 34, 3, 38, 2, 31, 6, 33, 14, 26]
Bài toán Antibandwidth
Version identifier: 20.1.0.0 | 2020-11-10 | 9bedb6d68
CPXPARAM_Simplex_PGradient                       4
CPXPARAM_Read_DataCheck                          1
CPXPARAM_MIP_Strategy_File                       3
CPXPARAM_TimeLimit                               1800
CPXPARAM_WorkMem                                 122880
Tried aggregator 1 time.
MIP Presolve eliminated 40 rows and 35 columns.
MIP Presolve modified 67 coefficients.
Reduced MIP has 1116 rows, 1486 columns, and 37134 nonzeros.
Reduced MIP has 1486 binaries, 0 generals, 0 SOSs, and 0 indicators.
Presolve time = 0.02 sec. (34.45 ticks)
Probing fixed 60 vars, tightened 0 bounds.
Probing time = 0.01 sec. (3.67 ticks)
Tried aggregator 1 time.
Detecting symmetries...
MIP Presolve eliminated 0 rows and 60 columns.
Reduced MIP has 1116 rows, 1426 columns, and 35664 nonzeros.
Reduced MIP has 1426 binaries, 0 generals, 0 SOSs, and 0 indicators.
Presolve time = 0.03 sec. (30.09 ticks)
Probing time = 0.01 sec. (2.41 ticks)
Clique table members: 1836.
MIP emphasis: balance optimality and feasibility.
MIP search method: dynamic search.
Parallel mode: deterministic, using up to 8 threads.
Root relaxation solution time = 0.07 sec. (83.16 ticks)

        Nodes                                         Cuts/
   Node  Left     Objective  IInf  Best Integer    Best Bound    ItCnt     Gap

      0     0        0.0000   128                      0.0000      874         
      0     0        0.0000   139                     Cuts: 9     1115         
*     0+    0                            0.0000        0.0000             0.00%
      0     0        cutoff              0.0000        0.0000     1439    0.00%
Elapsed time = 2.71 sec. (2574.75 ticks, tree = 0.01 MB, solutions = 1)

Clique cuts applied:  12
Zero-half cuts applied:  1
Gomory fractional cuts applied:  2

Root node processing (before b&c):
  Real time             =    2.71 sec. (2574.80 ticks)
Parallel b&c, 8 threads:
  Real time             =    0.00 sec. (0.00 ticks)
  Sync time (average)   =    0.00 sec.
  Wait time (average)   =    0.00 sec.
                          ------------
Total (root+branch&cut) =    2.71 sec. (2574.80 ticks)
Trạng thái giải pháp: integer optimal solution
Giá trị Antibandwidth: 17
Giá trị Antibandwidth: 17
Các nhãn: [13, 33, 27, 12, 17, 30, 23, 3, 16, 31, 11, 8, 14, 21, 24, 37, 26, 35, 18, 7, 22, 29, 20, 9, 34, 6, 2, 19, 10, 36, 38, 1, 39, 5, 32, 4, 25, 15, 28]
Bài toán Antibandwidth
[runlim] end:			Wed Oct  9 01:19:30 2024
[runlim] status:		ok
[runlim] result:		0
[runlim] children:		0
[runlim] real:			3.59 seconds
[runlim] time:			16.14 seconds
[runlim] space:			97.5 MB
[runlim] samples:		30
